QPLIB_3762
QBL
minimize
90 # number of variables
480 # number of constraints
1133 # number of quadratic terms in objective
46 1 -4.0
49 1 4.0
57 1 -4.0
59 1 -4.0
61 1 4.0
62 1 4.0
63 1 4.0
64 1 4.0
65 1 4.0
68 1 4.0
69 1 -4.0
70 1 -4.0
71 1 -4.0
72 1 -4.0
76 1 -4.0
77 1 4.0
79 1 -4.0
80 1 -4.0
81 1 4.0
82 1 -4.0
83 1 -4.0
84 1 4.0
86 1 4.0
87 1 4.0
88 1 -4.0
89 1 -4.0
46 2 -4.0
53 2 4.0
55 2 4.0
57 2 -4.0
59 2 -4.0
61 2 4.0
62 2 4.0
63 2 4.0
64 2 4.0
65 2 4.0
68 2 4.0
70 2 4.0
71 2 4.0
72 2 -4.0
73 2 4.0
74 2 4.0
75 2 4.0
76 2 -4.0
77 2 4.0
79 2 -4.0
80 2 -4.0
82 2 -4.0
83 2 -4.0
86 2 4.0
87 2 4.0
88 2 -4.0
89 2 -4.0
49 3 4.0
53 3 -4.0
55 3 -4.0
62 3 4.0
64 3 -4.0
65 3 -4.0
69 3 -4.0
70 3 -4.0
71 3 -4.0
72 3 -4.0
74 3 -4.0
75 3 -4.0
79 3 4.0
80 3 4.0
82 3 4.0
83 3 4.0
88 3 -4.0
45 4 -4.0
47 4 -4.0
49 4 4.0
50 4 -4.0
52 4 -4.0
53 4 -4.0
54 4 -4.0
55 4 -4.0
56 4 -4.0
58 4 -4.0
61 4 4.0
62 4 4.0
64 4 -4.0
65 4 -4.0
68 4 4.0
69 4 -4.0
70 4 -4.0
71 4 -4.0
72 4 -4.0
74 4 -4.0
75 4 -4.0
77 4 4.0
79 4 4.0
80 4 4.0
81 4 4.0
82 4 4.0
83 4 4.0
84 4 4.0
86 4 4.0
87 4 4.0
88 4 -4.0
46 5 4.0
49 5 4.0
51 5 4.0
53 5 4.0
55 5 4.0
59 5 4.0
61 5 4.0
62 5 4.0
66 5 -4.0
68 5 4.0
69 5 -4.0
70 5 -4.0
71 5 -4.0
72 5 -4.0
76 5 -4.0
77 5 4.0
79 5 -4.0
81 5 4.0
82 5 -4.0
84 5 4.0
85 5 4.0
86 5 4.0
87 5 4.0
88 5 -4.0
46 6 4.0
49 6 4.0
51 6 4.0
53 6 4.0
55 6 4.0
59 6 4.0
61 6 4.0
64 6 4.0
65 6 4.0
66 6 -4.0
68 6 4.0
70 6 4.0
71 6 4.0
73 6 4.0
74 6 4.0
75 6 4.0
76 6 -4.0
77 6 4.0
79 6 -4.0
80 6 -4.0
82 6 -4.0
83 6 -4.0
85 6 4.0
86 6 4.0
87 6 4.0
88 6 -4.0
45 7 -4.0
47 7 -4.0
49 7 4.0
50 7 -4.0
51 7 4.0
52 7 -4.0
53 7 4.0
54 7 -4.0
56 7 -4.0
57 7 4.0
58 7 -4.0
59 7 4.0
62 7 4.0
63 7 4.0
64 7 4.0
66 7 4.0
67 7 4.0
69 7 -4.0
70 7 -4.0
71 7 -4.0
72 7 -4.0
75 7 -4.0
78 7 -4.0
82 7 4.0
83 7 4.0
88 7 -4.0
45 8 -4.0
47 8 -4.0
48 8 -4.0
49 8 4.0
50 8 -4.0
51 8 4.0
53 8 4.0
56 8 -4.0
57 8 4.0
58 8 -4.0
59 8 4.0
62 8 4.0
63 8 4.0
64 8 4.0
66 8 4.0
67 8 4.0
70 8 4.0
74 8 4.0
79 8 -4.0
80 8 -4.0
45 9 -4.0
47 9 -4.0
50 9 -4.0
51 9 -4.0
52 9 -4.0
54 9 -4.0
56 9 -4.0
58 9 -4.0
59 9 -4.0
61 9 4.0
63 9 -4.0
67 9 -4.0
68 9 4.0
74 9 4.0
75 9 4.0
76 9 4.0
77 9 4.0
80 9 -4.0
81 9 4.0
83 9 -4.0
84 9 4.0
85 9 -4.0
86 9 4.0
87 9 4.0
45 10 -4.0
47 10 -4.0
48 10 -4.0
49 10 -4.0
50 10 -4.0
51 10 -4.0
53 10 4.0
55 10 4.0
56 10 -4.0
58 10 -4.0
59 10 -4.0
61 10 4.0
62 10 -4.0
63 10 -4.0
64 10 4.0
65 10 4.0
67 10 -4.0
68 10 4.0
70 10 4.0
71 10 4.0
73 10 4.0
74 10 4.0
75 10 4.0
76 10 4.0
77 10 4.0
79 10 -4.0
80 10 -4.0
82 10 -4.0
83 10 -4.0
85 10 -4.0
86 10 4.0
87 10 4.0
88 10 4.0
49 11 4.0
51 11 -4.0
53 11 -4.0
61 11 4.0
62 11 4.0
63 11 -4.0
64 11 -4.0
68 11 4.0
69 11 -4.0
70 11 -4.0
71 11 -4.0
72 11 -4.0
75 11 4.0
76 11 4.0
77 11 4.0
78 11 4.0
79 11 4.0
80 11 4.0
81 11 4.0
84 11 4.0
86 11 4.0
87 11 4.0
88 11 -4.0
89 11 4.0
51 12 -4.0
55 12 4.0
61 12 4.0
63 12 -4.0
65 12 4.0
68 12 4.0
69 12 -4.0
71 12 4.0
73 12 4.0
75 12 4.0
76 12 4.0
77 12 4.0
82 12 -4.0
83 12 -4.0
86 12 4.0
87 12 4.0
89 12 4.0
45 13 -4.0
47 13 -4.0
49 13 4.0
50 13 -4.0
52 13 -4.0
54 13 -4.0
55 13 -4.0
56 13 -4.0
58 13 -4.0
61 13 4.0
62 13 4.0
65 13 -4.0
68 13 4.0
69 13 -4.0
70 13 -4.0
71 13 -4.0
72 13 -4.0
75 13 -4.0
77 13 4.0
78 13 -4.0
81 13 4.0
82 13 4.0
83 13 4.0
84 13 4.0
86 13 4.0
87 13 4.0
88 13 -4.0
45 14 -4.0
47 14 -4.0
48 14 -4.0
50 14 -4.0
53 14 4.0
56 14 -4.0
58 14 -4.0
61 14 4.0
64 14 4.0
68 14 4.0
70 14 4.0
73 14 4.0
74 14 4.0
77 14 4.0
79 14 -4.0
80 14 -4.0
86 14 4.0
87 14 4.0
45 15 -4.0
47 15 -4.0
49 15 4.0
50 15 -4.0
51 15 4.0
52 15 -4.0
53 15 4.0
54 15 -4.0
55 15 4.0
56 15 -4.0
57 15 4.0
58 15 -4.0
61 15 4.0
62 15 4.0
63 15 4.0
64 15 4.0
65 15 4.0
66 15 4.0
68 15 4.0
69 15 -4.0
70 15 -4.0
71 15 -4.0
72 15 -4.0
77 15 4.0
80 15 -4.0
81 15 4.0
83 15 -4.0
84 15 4.0
85 15 -4.0
86 15 4.0
87 15 4.0
88 15 -4.0
89 15 -4.0
45 16 -4.0
47 16 -4.0
48 16 -4.0
49 16 4.0
50 16 -4.0
51 16 4.0
53 16 4.0
55 16 4.0
56 16 -4.0
57 16 4.0
58 16 -4.0
61 16 4.0
62 16 4.0
63 16 4.0
64 16 4.0
65 16 4.0
66 16 4.0
68 16 4.0
70 16 4.0
71 16 4.0
72 16 -4.0
73 16 4.0
74 16 4.0
75 16 4.0
77 16 4.0
79 16 -4.0
80 16 -4.0
82 16 -4.0
83 16 -4.0
85 16 -4.0
86 16 4.0
87 16 4.0
89 16 -4.0
46 17 4.0
47 17 -4.0
48 17 -4.0
50 17 -4.0
52 17 -4.0
53 17 -4.0
54 17 -4.0
55 17 -4.0
57 17 4.0
59 17 4.0
60 17 -4.0
62 17 -4.0
63 17 -4.0
64 17 -4.0
65 17 -4.0
68 17 -4.0
70 17 -4.0
71 17 -4.0
72 17 4.0
74 17 -4.0
75 17 -4.0
76 17 4.0
79 17 4.0
80 17 4.0
81 17 4.0
82 17 4.0
83 17 4.0
84 17 4.0
86 17 -4.0
87 17 -4.0
88 17 4.0
89 17 4.0
46 18 4.0
49 18 4.0
51 18 4.0
53 18 4.0
55 18 4.0
59 18 4.0
61 18 4.0
62 18 -4.0
63 18 -4.0
64 18 -4.0
65 18 -4.0
68 18 -4.0
72 18 4.0
80 18 4.0
83 18 4.0
87 18 -4.0
89 18 4.0
47 19 -4.0
48 19 -4.0
49 19 4.0
50 19 -4.0
51 19 4.0
52 19 -4.0
53 19 4.0
54 19 -4.0
57 19 4.0
59 19 4.0
60 19 -4.0
71 19 -4.0
72 19 4.0
73 19 -4.0
75 19 -4.0
76 19 4.0
77 19 -4.0
78 19 -4.0
79 19 4.0
80 19 4.0
81 19 -4.0
82 19 4.0
83 19 4.0
86 19 -4.0
87 19 -4.0
88 19 4.0
89 19 4.0
46 20 4.0
47 20 -4.0
48 20 -4.0
49 20 -4.0
50 20 -4.0
51 20 -4.0
52 20 -4.0
54 20 -4.0
57 20 4.0
60 20 -4.0
62 20 -4.0
63 20 -4.0
64 20 -4.0
65 20 -4.0
68 20 -4.0
70 20 4.0
71 20 4.0
73 20 4.0
74 20 4.0
75 20 4.0
76 20 4.0
77 20 4.0
79 20 4.0
82 20 4.0
86 20 -4.0
88 20 4.0
46 21 4.0
51 21 -4.0
53 21 -4.0
57 21 4.0
59 21 4.0
62 21 -4.0
63 21 -4.0
64 21 -4.0
65 21 -4.0
68 21 -4.0
69 21 -4.0
70 21 -4.0
72 21 4.0
75 21 4.0
76 21 4.0
77 21 4.0
78 21 4.0
79 21 4.0
80 21 4.0
81 21 4.0
82 21 4.0
83 21 4.0
86 21 -4.0
87 21 -4.0
88 21 4.0
89 21 4.0
46 22 4.0
47 22 -4.0
48 22 -4.0
50 22 -4.0
52 22 -4.0
54 22 -4.0
55 22 -4.0
57 22 4.0
59 22 4.0
60 22 -4.0
62 22 -4.0
63 22 -4.0
64 22 -4.0
65 22 -4.0
68 22 -4.0
71 22 -4.0
72 22 4.0
75 22 -4.0
76 22 4.0
78 22 -4.0
79 22 4.0
80 22 4.0
82 22 4.0
83 22 4.0
84 22 4.0
86 22 -4.0
87 22 -4.0
88 22 4.0
89 22 4.0
47 23 -4.0
48 23 -4.0
49 23 4.0
50 23 -4.0
51 23 4.0
52 23 -4.0
53 23 4.0
54 23 -4.0
55 23 4.0
57 23 4.0
60 23 -4.0
61 23 4.0
76 23 4.0
79 23 4.0
82 23 4.0
86 23 -4.0
88 23 4.0
45 24 4.0
46 24 4.0
48 24 4.0
49 24 4.0
50 24 4.0
51 24 4.0
52 24 4.0
53 24 4.0
54 24 4.0
55 24 4.0
58 24 4.0
59 24 4.0
60 24 4.0
61 24 4.0
64 24 4.0
65 24 4.0
66 24 -4.0
70 24 4.0
71 24 4.0
74 24 4.0
75 24 4.0
76 24 -4.0
79 24 -4.0
80 24 -4.0
81 24 -4.0
82 24 -4.0
83 24 -4.0
84 24 -4.0
85 24 4.0
86 24 4.0
88 24 -4.0
45 25 -4.0
47 25 -4.0
49 25 4.0
51 25 4.0
52 25 4.0
53 25 4.0
57 25 4.0
59 25 4.0
60 25 -4.0
62 25 4.0
63 25 4.0
64 25 4.0
66 25 4.0
67 25 4.0
70 25 4.0
73 25 -4.0
74 25 4.0
77 25 -4.0
79 25 -4.0
80 25 -4.0
81 25 -4.0
86 25 -4.0
87 25 -4.0
48 26 -4.0
49 26 -4.0
50 26 -4.0
51 26 -4.0
52 26 4.0
53 26 4.0
54 26 4.0
55 26 4.0
58 26 -4.0
59 26 -4.0
62 26 -4.0
63 26 -4.0
64 26 4.0
65 26 4.0
67 26 -4.0
70 26 4.0
71 26 4.0
73 26 4.0
74 26 4.0
75 26 4.0
76 26 4.0
77 26 4.0
79 26 -4.0
80 26 -4.0
81 26 -4.0
82 26 -4.0
83 26 -4.0
84 26 -4.0
85 26 -4.0
87 26 4.0
88 26 4.0
45 27 4.0
47 27 4.0
48 27 4.0
51 27 -4.0
54 27 4.0
55 27 4.0
56 27 4.0
58 27 4.0
60 27 4.0
63 27 -4.0
65 27 4.0
69 27 -4.0
71 27 4.0
75 27 4.0
76 27 4.0
77 27 4.0
82 27 -4.0
83 27 -4.0
84 27 -4.0
89 27 4.0
52 28 4.0
53 28 4.0
64 28 4.0
70 28 4.0
74 28 4.0
79 28 -4.0
80 28 -4.0
81 28 -4.0
45 29 -4.0
47 29 -4.0
49 29 4.0
51 29 4.0
52 29 4.0
53 29 4.0
54 29 4.0
55 29 4.0
57 29 4.0
58 29 -4.0
61 29 4.0
62 29 4.0
63 29 4.0
64 29 4.0
65 29 4.0
66 29 4.0
68 29 4.0
70 29 4.0
71 29 4.0
72 29 -4.0
74 29 4.0
75 29 4.0
79 29 -4.0
80 29 -4.0
81 29 -4.0
82 29 -4.0
83 29 -4.0
84 29 -4.0
85 29 -4.0
87 29 4.0
89 29 -4.0
45 30 -4.0
48 30 -4.0
50 30 -4.0
52 30 -4.0
54 30 -4.0
58 30 -4.0
60 30 -4.0
62 30 4.0
63 30 4.0
64 30 4.0
66 30 4.0
67 30 4.0
71 30 -4.0
73 30 -4.0
75 30 -4.0
76 30 4.0
77 30 -4.0
78 30 -4.0
79 30 4.0
81 30 -4.0
82 30 4.0
83 30 4.0
85 30 -4.0
86 30 -4.0
87 30 -4.0
88 30 4.0
45 31 -4.0
46 31 -4.0
48 31 -4.0
49 31 -4.0
50 31 -4.0
51 31 -4.0
52 31 -4.0
53 31 -4.0
54 31 -4.0
55 31 -4.0
58 31 -4.0
59 31 -4.0
60 31 -4.0
61 31 -4.0
62 31 -4.0
63 31 -4.0
66 31 4.0
67 31 -4.0
70 31 4.0
71 31 4.0
73 31 4.0
74 31 4.0
75 31 4.0
76 31 4.0
77 31 4.0
79 31 4.0
80 31 -4.0
82 31 4.0
83 31 -4.0
85 31 -4.0
86 31 -4.0
87 31 4.0
88 31 4.0
46 32 -4.0
49 32 -4.0
51 32 -4.0
53 32 -4.0
55 32 -4.0
59 32 -4.0
61 32 -4.0
63 32 -4.0
64 32 -4.0
66 32 4.0
69 32 -4.0
70 32 -4.0
75 32 4.0
76 32 4.0
77 32 4.0
78 32 4.0
79 32 4.0
80 32 4.0
81 32 4.0
82 32 4.0
85 32 -4.0
86 32 -4.0
88 32 4.0
89 32 4.0
45 33 -4.0
46 33 -4.0
48 33 -4.0
49 33 -4.0
50 33 -4.0
51 33 -4.0
52 33 -4.0
53 33 -4.0
54 33 -4.0
55 33 -4.0
58 33 -4.0
59 33 -4.0
60 33 -4.0
61 33 -4.0
65 33 -4.0
66 33 4.0
71 33 -4.0
75 33 -4.0
76 33 4.0
78 33 -4.0
79 33 4.0
82 33 4.0
83 33 4.0
84 33 4.0
85 33 -4.0
86 33 -4.0
88 33 4.0
45 34 -4.0
48 34 -4.0
50 34 -4.0
52 34 -4.0
54 34 -4.0
58 34 -4.0
60 34 -4.0
62 34 4.0
63 34 4.0
64 34 4.0
65 34 4.0
66 34 4.0
68 34 4.0
72 34 -4.0
76 34 4.0
79 34 4.0
80 34 -4.0
82 34 4.0
83 34 -4.0
85 34 -4.0
86 34 -4.0
87 34 4.0
88 34 4.0
89 34 -4.0
45 35 4.0
47 35 4.0
48 35 -4.0
49 35 -4.0
50 35 -4.0
51 35 -4.0
53 35 -4.0
54 35 4.0
57 35 -4.0
58 35 -4.0
59 35 -4.0
60 35 4.0
62 35 -4.0
63 35 -4.0
64 35 -4.0
66 35 -4.0
67 35 -4.0
70 35 4.0
71 35 4.0
73 35 4.0
74 35 4.0
75 35 4.0
76 35 4.0
77 35 4.0
78 35 4.0
80 35 -4.0
81 35 4.0
82 35 -4.0
83 35 -4.0
85 35 -4.0
86 35 4.0
87 35 4.0
88 35 4.0
45 36 4.0
47 36 4.0
48 36 4.0
49 36 -4.0
51 36 -4.0
53 36 -4.0
54 36 4.0
56 36 4.0
57 36 -4.0
58 36 4.0
59 36 -4.0
60 36 4.0
62 36 -4.0
63 36 -4.0
64 36 -4.0
66 36 -4.0
67 36 -4.0
69 36 -4.0
70 36 -4.0
71 36 4.0
73 36 4.0
75 36 4.0
76 36 4.0
77 36 4.0
78 36 4.0
79 36 4.0
80 36 4.0
81 36 4.0
82 36 -4.0
83 36 -4.0
86 36 4.0
87 36 4.0
89 36 4.0
45 37 4.0
47 37 4.0
49 37 -4.0
51 37 -4.0
53 37 -4.0
57 37 -4.0
59 37 -4.0
60 37 4.0
62 37 -4.0
63 37 -4.0
64 37 -4.0
66 37 -4.0
67 37 -4.0
73 37 4.0
77 37 4.0
81 37 4.0
86 37 4.0
87 37 4.0
54 38 4.0
58 38 -4.0
60 38 4.0
71 38 4.0
72 38 -4.0
73 38 4.0
75 38 4.0
77 38 4.0
78 38 4.0
80 38 -4.0
81 38 4.0
82 38 -4.0
83 38 -4.0
85 38 -4.0
86 38 4.0
87 38 4.0
89 38 -4.0
45 39 4.0
47 39 4.0
48 39 4.0
49 39 4.0
53 39 -4.0
54 39 4.0
56 39 4.0
58 39 4.0
59 39 4.0
60 39 4.0
62 39 4.0
64 39 -4.0
67 39 4.0
70 39 -4.0
71 39 -4.0
73 39 -4.0
78 39 4.0
79 39 4.0
80 39 4.0
81 39 4.0
83 39 4.0
85 39 4.0
87 39 -4.0
88 39 -4.0
48 40 4.0
49 40 4.0
50 40 4.0
51 40 4.0
54 40 -4.0
55 40 -4.0
58 40 4.0
59 40 4.0
62 40 4.0
63 40 4.0
65 40 -4.0
67 40 4.0
70 40 -4.0
71 40 -4.0
73 40 -4.0
74 40 -4.0
75 40 -4.0
76 40 -4.0
77 40 -4.0
78 40 -4.0
80 40 4.0
82 40 4.0
83 40 4.0
84 40 4.0
85 40 4.0
87 40 -4.0
88 40 -4.0
45 41 -4.0
47 41 -4.0
48 41 4.0
49 41 4.0
50 41 4.0
51 41 4.0
53 41 4.0
55 41 4.0
57 41 4.0
61 41 4.0
62 41 4.0
63 41 4.0
64 41 4.0
65 41 4.0
66 41 4.0
68 41 4.0
70 41 -4.0
71 41 -4.0
73 41 -4.0
74 41 -4.0
75 41 -4.0
76 41 -4.0
77 41 -4.0
88 41 -4.0
45 42 -4.0
47 42 -4.0
48 42 -4.0
51 42 4.0
53 42 4.0
54 42 -4.0
55 42 -4.0
56 42 -4.0
58 42 -4.0
60 42 -4.0
63 42 4.0
64 42 4.0
65 42 -4.0
69 42 4.0
70 42 4.0
71 42 -4.0
75 42 -4.0
76 42 -4.0
77 42 -4.0
78 42 -4.0
79 42 -4.0
80 42 -4.0
81 42 -4.0
82 42 4.0
83 42 4.0
84 42 4.0
89 42 -4.0
45 43 -4.0
47 43 -4.0
48 43 -4.0
49 43 4.0
51 43 4.0
53 43 4.0
54 43 -4.0
55 43 4.0
56 43 -4.0
57 43 4.0
58 43 -4.0
60 43 -4.0
61 43 4.0
62 43 4.0
63 43 4.0
64 43 4.0
65 43 4.0
66 43 4.0
68 43 4.0
69 43 4.0
70 43 4.0
72 43 -4.0
75 43 -4.0
76 43 -4.0
77 43 -4.0
78 43 -4.0
79 43 -4.0
80 43 -4.0
81 43 -4.0
83 43 -4.0
85 43 -4.0
87 43 4.0
89 43 -4.0
45 44 -4.0
47 44 -4.0
49 44 4.0
51 44 4.0
53 44 4.0
54 44 4.0
55 44 4.0
57 44 4.0
58 44 -4.0
61 44 4.0
62 44 4.0
63 44 4.0
64 44 4.0
65 44 4.0
66 44 4.0
68 44 4.0
71 44 4.0
72 44 -4.0
75 44 4.0
78 44 4.0
80 44 -4.0
82 44 -4.0
83 44 -4.0
84 44 -4.0
85 44 -4.0
87 44 4.0
89 44 -4.0
90 45 -4.0
90 47 -4.0
90 48 -4.0
90 50 -4.0
90 56 -4.0
90 58 -4.0
90 61 4.0
90 68 4.0
90 73 4.0
90 77 4.0
90 86 4.0
90 87 4.0
0.0 # default value for linear coefficients in objective
87 # number of non-default linear coefficients in objective
1 2.0
2 -5.0
3 5.0
4 5.0
5 -6.0
6 -12.0
7 2.0
8 -4.0
9 4.0
10 1.0
11 -6.0
12 -7.0
13 5.0
14 -2.0
15 -1.0
16 -7.0
17 6.0
18 -5.0
19 1.0
20 2.0
21 -4.0
22 5.0
23 -3.0
24 -13.0
25 -3.0
26 1.0
27 -8.0
28 -2.0
29 -7.0
30 6.0
31 9.0
32 2.0
33 13.0
34 2.0
35 1.0
36 -5.0
37 2.0
38 -3.0
39 -10.0
40 -1.0
41 -4.0
42 9.0
43 3.0
44 -7.0
45 14.0
46 -3.0
47 16.0
48 12.0
49 -13.0
50 18.0
51 -3.0
52 9.0
53 -9.0
54 8.0
55 -6.0
56 9.0
57 -10.0
58 16.0
59 -2.0
60 5.0
61 -18.0
62 -9.0
63 1.0
64 -7.0
65 -4.0
66 -8.0
67 1.0
68 -14.0
69 11.0
70 -1.0
71 2.0
72 10.0
73 -8.0
74 -10.0
75 -6.0
76 -10.0
77 -17.0
78 1.0
79 -1.0
80 9.0
81 -6.0
82 -2.0
83 5.0
84 -7.0
85 10.0
86 -7.0
87 -15.0
0.0 # objective constant
1440 # number of linear terms in all constraints
1 1 -1.0
1 2 1.0
1 3 1.0
2 3 1.0
2 4 -1.0
2 90 1.0
3 3 1.0
3 5 -1.0
3 6 1.0
4 3 1.0
4 7 -1.0
4 8 1.0
5 3 1.0
5 9 -1.0
5 10 1.0
6 3 1.0
6 11 -1.0
6 12 1.0
7 3 1.0
7 13 -1.0
7 14 1.0
8 3 1.0
8 15 -1.0
8 16 1.0
9 1 1.0
9 4 -1.0
9 17 1.0
10 1 1.0
10 5 -1.0
10 18 1.0
11 1 1.0
11 7 -1.0
11 19 1.0
12 1 1.0
12 9 -1.0
12 20 1.0
13 1 1.0
13 11 -1.0
13 21 1.0
14 1 1.0
14 13 -1.0
14 22 1.0
15 1 1.0
15 15 -1.0
15 23 1.0
16 4 1.0
16 5 -1.0
16 24 1.0
17 4 1.0
17 7 -1.0
17 25 1.0
18 4 1.0
18 9 -1.0
18 26 1.0
19 4 1.0
19 11 -1.0
19 27 1.0
20 4 1.0
20 13 -1.0
20 28 1.0
21 4 1.0
21 15 -1.0
21 29 1.0
22 5 1.0
22 7 -1.0
22 30 1.0
23 5 1.0
23 9 -1.0
23 31 1.0
24 5 1.0
24 11 -1.0
24 32 1.0
25 5 1.0
25 13 -1.0
25 33 1.0
26 5 1.0
26 15 -1.0
26 34 1.0
27 7 1.0
27 9 -1.0
27 35 1.0
28 7 1.0
28 11 -1.0
28 36 1.0
29 7 1.0
29 13 -1.0
29 37 1.0
30 7 1.0
30 15 -1.0
30 38 1.0
31 9 1.0
31 11 -1.0
31 39 1.0
32 9 1.0
32 13 -1.0
32 40 1.0
33 9 1.0
33 15 -1.0
33 41 1.0
34 11 1.0
34 13 -1.0
34 42 1.0
35 11 1.0
35 15 -1.0
35 43 1.0
36 13 1.0
36 15 -1.0
36 44 1.0
37 2 1.0
37 17 1.0
37 90 -1.0
38 2 1.0
38 6 -1.0
38 18 1.0
39 2 1.0
39 8 -1.0
39 19 1.0
40 2 1.0
40 10 -1.0
40 20 1.0
41 2 1.0
41 12 -1.0
41 21 1.0
42 2 1.0
42 14 -1.0
42 22 1.0
43 2 1.0
43 16 -1.0
43 23 1.0
44 6 -1.0
44 24 1.0
44 90 1.0
45 8 -1.0
45 25 1.0
45 90 1.0
46 10 -1.0
46 26 1.0
46 90 1.0
47 12 -1.0
47 27 1.0
47 90 1.0
48 14 -1.0
48 28 1.0
48 90 1.0
49 16 -1.0
49 29 1.0
49 90 1.0
50 6 1.0
50 8 -1.0
50 30 1.0
51 6 1.0
51 10 -1.0
51 31 1.0
52 6 1.0
52 12 -1.0
52 32 1.0
53 6 1.0
53 14 -1.0
53 33 1.0
54 6 1.0
54 16 -1.0
54 34 1.0
55 8 1.0
55 10 -1.0
55 35 1.0
56 8 1.0
56 12 -1.0
56 36 1.0
57 8 1.0
57 14 -1.0
57 37 1.0
58 8 1.0
58 16 -1.0
58 38 1.0
59 10 1.0
59 12 -1.0
59 39 1.0
60 10 1.0
60 14 -1.0
60 40 1.0
61 10 1.0
61 16 -1.0
61 41 1.0
62 12 1.0
62 14 -1.0
62 42 1.0
63 12 1.0
63 16 -1.0
63 43 1.0
64 14 1.0
64 16 -1.0
64 44 1.0
65 17 1.0
65 18 -1.0
65 24 1.0
66 17 1.0
66 19 -1.0
66 25 1.0
67 17 1.0
67 20 -1.0
67 26 1.0
68 17 1.0
68 21 -1.0
68 27 1.0
69 17 1.0
69 22 -1.0
69 28 1.0
70 17 1.0
70 23 -1.0
70 29 1.0
71 18 1.0
71 19 -1.0
71 30 1.0
72 18 1.0
72 20 -1.0
72 31 1.0
73 18 1.0
73 21 -1.0
73 32 1.0
74 18 1.0
74 22 -1.0
74 33 1.0
75 18 1.0
75 23 -1.0
75 34 1.0
76 19 1.0
76 20 -1.0
76 35 1.0
77 19 1.0
77 21 -1.0
77 36 1.0
78 19 1.0
78 22 -1.0
78 37 1.0
79 19 1.0
79 23 -1.0
79 38 1.0
80 20 1.0
80 21 -1.0
80 39 1.0
81 20 1.0
81 22 -1.0
81 40 1.0
82 20 1.0
82 23 -1.0
82 41 1.0
83 21 1.0
83 22 -1.0
83 42 1.0
84 21 1.0
84 23 -1.0
84 43 1.0
85 22 1.0
85 23 -1.0
85 44 1.0
86 24 1.0
86 25 -1.0
86 30 1.0
87 24 1.0
87 26 -1.0
87 31 1.0
88 24 1.0
88 27 -1.0
88 32 1.0
89 24 1.0
89 28 -1.0
89 33 1.0
90 24 1.0
90 29 -1.0
90 34 1.0
91 25 1.0
91 26 -1.0
91 35 1.0
92 25 1.0
92 27 -1.0
92 36 1.0
93 25 1.0
93 28 -1.0
93 37 1.0
94 25 1.0
94 29 -1.0
94 38 1.0
95 26 1.0
95 27 -1.0
95 39 1.0
96 26 1.0
96 28 -1.0
96 40 1.0
97 26 1.0
97 29 -1.0
97 41 1.0
98 27 1.0
98 28 -1.0
98 42 1.0
99 27 1.0
99 29 -1.0
99 43 1.0
100 28 1.0
100 29 -1.0
100 44 1.0
101 30 1.0
101 31 -1.0
101 35 1.0
102 30 1.0
102 32 -1.0
102 36 1.0
103 30 1.0
103 33 -1.0
103 37 1.0
104 30 1.0
104 34 -1.0
104 38 1.0
105 31 1.0
105 32 -1.0
105 39 1.0
106 31 1.0
106 33 -1.0
106 40 1.0
107 31 1.0
107 34 -1.0
107 41 1.0
108 32 1.0
108 33 -1.0
108 42 1.0
109 32 1.0
109 34 -1.0
109 43 1.0
110 33 1.0
110 34 -1.0
110 44 1.0
111 35 1.0
111 36 -1.0
111 39 1.0
112 35 1.0
112 37 -1.0
112 40 1.0
113 35 1.0
113 38 -1.0
113 41 1.0
114 36 1.0
114 37 -1.0
114 42 1.0
115 36 1.0
115 38 -1.0
115 43 1.0
116 37 1.0
116 38 -1.0
116 44 1.0
117 39 1.0
117 40 -1.0
117 42 1.0
118 39 1.0
118 41 -1.0
118 43 1.0
119 40 1.0
119 41 -1.0
119 44 1.0
120 42 1.0
120 43 -1.0
120 44 1.0
121 1 1.0
121 2 -1.0
121 3 -1.0
122 3 -1.0
122 4 1.0
122 90 -1.0
123 3 -1.0
123 5 1.0
123 6 -1.0
124 3 -1.0
124 7 1.0
124 8 -1.0
125 3 -1.0
125 9 1.0
125 10 -1.0
126 3 -1.0
126 11 1.0
126 12 -1.0
127 3 -1.0
127 13 1.0
127 14 -1.0
128 3 -1.0
128 15 1.0
128 16 -1.0
129 1 -1.0
129 4 1.0
129 17 -1.0
130 1 -1.0
130 5 1.0
130 18 -1.0
131 1 -1.0
131 7 1.0
131 19 -1.0
132 1 -1.0
132 9 1.0
132 20 -1.0
133 1 -1.0
133 11 1.0
133 21 -1.0
134 1 -1.0
134 13 1.0
134 22 -1.0
135 1 -1.0
135 15 1.0
135 23 -1.0
136 4 -1.0
136 5 1.0
136 24 -1.0
137 4 -1.0
137 7 1.0
137 25 -1.0
138 4 -1.0
138 9 1.0
138 26 -1.0
139 4 -1.0
139 11 1.0
139 27 -1.0
140 4 -1.0
140 13 1.0
140 28 -1.0
141 4 -1.0
141 15 1.0
141 29 -1.0
142 5 -1.0
142 7 1.0
142 30 -1.0
143 5 -1.0
143 9 1.0
143 31 -1.0
144 5 -1.0
144 11 1.0
144 32 -1.0
145 5 -1.0
145 13 1.0
145 33 -1.0
146 5 -1.0
146 15 1.0
146 34 -1.0
147 7 -1.0
147 9 1.0
147 35 -1.0
148 7 -1.0
148 11 1.0
148 36 -1.0
149 7 -1.0
149 13 1.0
149 37 -1.0
150 7 -1.0
150 15 1.0
150 38 -1.0
151 9 -1.0
151 11 1.0
151 39 -1.0
152 9 -1.0
152 13 1.0
152 40 -1.0
153 9 -1.0
153 15 1.0
153 41 -1.0
154 11 -1.0
154 13 1.0
154 42 -1.0
155 11 -1.0
155 15 1.0
155 43 -1.0
156 13 -1.0
156 15 1.0
156 44 -1.0
157 2 -1.0
157 17 -1.0
157 90 1.0
158 2 -1.0
158 6 1.0
158 18 -1.0
159 2 -1.0
159 8 1.0
159 19 -1.0
160 2 -1.0
160 10 1.0
160 20 -1.0
161 2 -1.0
161 12 1.0
161 21 -1.0
162 2 -1.0
162 14 1.0
162 22 -1.0
163 2 -1.0
163 16 1.0
163 23 -1.0
164 6 1.0
164 24 -1.0
164 90 -1.0
165 8 1.0
165 25 -1.0
165 90 -1.0
166 10 1.0
166 26 -1.0
166 90 -1.0
167 12 1.0
167 27 -1.0
167 90 -1.0
168 14 1.0
168 28 -1.0
168 90 -1.0
169 16 1.0
169 29 -1.0
169 90 -1.0
170 6 -1.0
170 8 1.0
170 30 -1.0
171 6 -1.0
171 10 1.0
171 31 -1.0
172 6 -1.0
172 12 1.0
172 32 -1.0
173 6 -1.0
173 14 1.0
173 33 -1.0
174 6 -1.0
174 16 1.0
174 34 -1.0
175 8 -1.0
175 10 1.0
175 35 -1.0
176 8 -1.0
176 12 1.0
176 36 -1.0
177 8 -1.0
177 14 1.0
177 37 -1.0
178 8 -1.0
178 16 1.0
178 38 -1.0
179 10 -1.0
179 12 1.0
179 39 -1.0
180 10 -1.0
180 14 1.0
180 40 -1.0
181 10 -1.0
181 16 1.0
181 41 -1.0
182 12 -1.0
182 14 1.0
182 42 -1.0
183 12 -1.0
183 16 1.0
183 43 -1.0
184 14 -1.0
184 16 1.0
184 44 -1.0
185 17 -1.0
185 18 1.0
185 24 -1.0
186 17 -1.0
186 19 1.0
186 25 -1.0
187 17 -1.0
187 20 1.0
187 26 -1.0
188 17 -1.0
188 21 1.0
188 27 -1.0
189 17 -1.0
189 22 1.0
189 28 -1.0
190 17 -1.0
190 23 1.0
190 29 -1.0
191 18 -1.0
191 19 1.0
191 30 -1.0
192 18 -1.0
192 20 1.0
192 31 -1.0
193 18 -1.0
193 21 1.0
193 32 -1.0
194 18 -1.0
194 22 1.0
194 33 -1.0
195 18 -1.0
195 23 1.0
195 34 -1.0
196 19 -1.0
196 20 1.0
196 35 -1.0
197 19 -1.0
197 21 1.0
197 36 -1.0
198 19 -1.0
198 22 1.0
198 37 -1.0
199 19 -1.0
199 23 1.0
199 38 -1.0
200 20 -1.0
200 21 1.0
200 39 -1.0
201 20 -1.0
201 22 1.0
201 40 -1.0
202 20 -1.0
202 23 1.0
202 41 -1.0
203 21 -1.0
203 22 1.0
203 42 -1.0
204 21 -1.0
204 23 1.0
204 43 -1.0
205 22 -1.0
205 23 1.0
205 44 -1.0
206 24 -1.0
206 25 1.0
206 30 -1.0
207 24 -1.0
207 26 1.0
207 31 -1.0
208 24 -1.0
208 27 1.0
208 32 -1.0
209 24 -1.0
209 28 1.0
209 33 -1.0
210 24 -1.0
210 29 1.0
210 34 -1.0
211 25 -1.0
211 26 1.0
211 35 -1.0
212 25 -1.0
212 27 1.0
212 36 -1.0
213 25 -1.0
213 28 1.0
213 37 -1.0
214 25 -1.0
214 29 1.0
214 38 -1.0
215 26 -1.0
215 27 1.0
215 39 -1.0
216 26 -1.0
216 28 1.0
216 40 -1.0
217 26 -1.0
217 29 1.0
217 41 -1.0
218 27 -1.0
218 28 1.0
218 42 -1.0
219 27 -1.0
219 29 1.0
219 43 -1.0
220 28 -1.0
220 29 1.0
220 44 -1.0
221 30 -1.0
221 31 1.0
221 35 -1.0
222 30 -1.0
222 32 1.0
222 36 -1.0
223 30 -1.0
223 33 1.0
223 37 -1.0
224 30 -1.0
224 34 1.0
224 38 -1.0
225 31 -1.0
225 32 1.0
225 39 -1.0
226 31 -1.0
226 33 1.0
226 40 -1.0
227 31 -1.0
227 34 1.0
227 41 -1.0
228 32 -1.0
228 33 1.0
228 42 -1.0
229 32 -1.0
229 34 1.0
229 43 -1.0
230 33 -1.0
230 34 1.0
230 44 -1.0
231 35 -1.0
231 36 1.0
231 39 -1.0
232 35 -1.0
232 37 1.0
232 40 -1.0
233 35 -1.0
233 38 1.0
233 41 -1.0
234 36 -1.0
234 37 1.0
234 42 -1.0
235 36 -1.0
235 38 1.0
235 43 -1.0
236 37 -1.0
236 38 1.0
236 44 -1.0
237 39 -1.0
237 40 1.0
237 42 -1.0
238 39 -1.0
238 41 1.0
238 43 -1.0
239 40 -1.0
239 41 1.0
239 44 -1.0
240 42 -1.0
240 43 1.0
240 44 -1.0
241 45 -1.0
241 46 1.0
241 47 1.0
242 47 1.0
242 48 -1.0
242 49 1.0
243 47 1.0
243 50 -1.0
243 51 1.0
244 47 1.0
244 52 -1.0
244 53 1.0
245 47 1.0
245 54 -1.0
245 55 1.0
246 47 1.0
246 56 -1.0
246 57 1.0
247 47 1.0
247 58 -1.0
247 59 1.0
248 47 1.0
248 60 -1.0
248 61 1.0
249 45 1.0
249 48 -1.0
249 62 1.0
250 45 1.0
250 50 -1.0
250 63 1.0
251 45 1.0
251 52 -1.0
251 64 1.0
252 45 1.0
252 54 -1.0
252 65 1.0
253 45 1.0
253 56 -1.0
253 66 1.0
254 45 1.0
254 58 -1.0
254 67 1.0
255 45 1.0
255 60 -1.0
255 68 1.0
256 48 1.0
256 50 -1.0
256 69 1.0
257 48 1.0
257 52 -1.0
257 70 1.0
258 48 1.0
258 54 -1.0
258 71 1.0
259 48 1.0
259 56 -1.0
259 88 1.0
260 48 1.0
260 58 -1.0
260 72 1.0
261 48 1.0
261 60 -1.0
261 73 1.0
262 50 1.0
262 52 -1.0
262 74 1.0
263 50 1.0
263 54 -1.0
263 75 1.0
264 50 1.0
264 56 -1.0
264 76 1.0
265 50 1.0
265 58 -1.0
265 89 1.0
266 50 1.0
266 60 -1.0
266 77 1.0
267 52 1.0
267 54 -1.0
267 78 1.0
268 52 1.0
268 56 -1.0
268 79 1.0
269 52 1.0
269 58 -1.0
269 80 1.0
270 52 1.0
270 60 -1.0
270 81 1.0
271 54 1.0
271 56 -1.0
271 82 1.0
272 54 1.0
272 58 -1.0
272 83 1.0
273 54 1.0
273 60 -1.0
273 84 1.0
274 56 1.0
274 58 -1.0
274 85 1.0
275 56 1.0
275 60 -1.0
275 86 1.0
276 58 1.0
276 60 -1.0
276 87 1.0
277 46 1.0
277 49 -1.0
277 62 1.0
278 46 1.0
278 51 -1.0
278 63 1.0
279 46 1.0
279 53 -1.0
279 64 1.0
280 46 1.0
280 55 -1.0
280 65 1.0
281 46 1.0
281 57 -1.0
281 66 1.0
282 46 1.0
282 59 -1.0
282 67 1.0
283 46 1.0
283 61 -1.0
283 68 1.0
284 49 1.0
284 51 -1.0
284 69 1.0
285 49 1.0
285 53 -1.0
285 70 1.0
286 49 1.0
286 55 -1.0
286 71 1.0
287 49 1.0
287 57 -1.0
287 88 1.0
288 49 1.0
288 59 -1.0
288 72 1.0
289 49 1.0
289 61 -1.0
289 73 1.0
290 51 1.0
290 53 -1.0
290 74 1.0
291 51 1.0
291 55 -1.0
291 75 1.0
292 51 1.0
292 57 -1.0
292 76 1.0
293 51 1.0
293 59 -1.0
293 89 1.0
294 51 1.0
294 61 -1.0
294 77 1.0
295 53 1.0
295 55 -1.0
295 78 1.0
296 53 1.0
296 57 -1.0
296 79 1.0
297 53 1.0
297 59 -1.0
297 80 1.0
298 53 1.0
298 61 -1.0
298 81 1.0
299 55 1.0
299 57 -1.0
299 82 1.0
300 55 1.0
300 59 -1.0
300 83 1.0
301 55 1.0
301 61 -1.0
301 84 1.0
302 57 1.0
302 59 -1.0
302 85 1.0
303 57 1.0
303 61 -1.0
303 86 1.0
304 59 1.0
304 61 -1.0
304 87 1.0
305 62 1.0
305 63 -1.0
305 69 1.0
306 62 1.0
306 64 -1.0
306 70 1.0
307 62 1.0
307 65 -1.0
307 71 1.0
308 62 1.0
308 66 -1.0
308 88 1.0
309 62 1.0
309 67 -1.0
309 72 1.0
310 62 1.0
310 68 -1.0
310 73 1.0
311 63 1.0
311 64 -1.0
311 74 1.0
312 63 1.0
312 65 -1.0
312 75 1.0
313 63 1.0
313 66 -1.0
313 76 1.0
314 63 1.0
314 67 -1.0
314 89 1.0
315 63 1.0
315 68 -1.0
315 77 1.0
316 64 1.0
316 65 -1.0
316 78 1.0
317 64 1.0
317 66 -1.0
317 79 1.0
318 64 1.0
318 67 -1.0
318 80 1.0
319 64 1.0
319 68 -1.0
319 81 1.0
320 65 1.0
320 66 -1.0
320 82 1.0
321 65 1.0
321 67 -1.0
321 83 1.0
322 65 1.0
322 68 -1.0
322 84 1.0
323 66 1.0
323 67 -1.0
323 85 1.0
324 66 1.0
324 68 -1.0
324 86 1.0
325 67 1.0
325 68 -1.0
325 87 1.0
326 69 1.0
326 70 -1.0
326 74 1.0
327 69 1.0
327 71 -1.0
327 75 1.0
328 69 1.0
328 76 1.0
328 88 -1.0
329 69 1.0
329 72 -1.0
329 89 1.0
330 69 1.0
330 73 -1.0
330 77 1.0
331 70 1.0
331 71 -1.0
331 78 1.0
332 70 1.0
332 79 1.0
332 88 -1.0
333 70 1.0
333 72 -1.0
333 80 1.0
334 70 1.0
334 73 -1.0
334 81 1.0
335 71 1.0
335 82 1.0
335 88 -1.0
336 71 1.0
336 72 -1.0
336 83 1.0
337 71 1.0
337 73 -1.0
337 84 1.0
338 72 -1.0
338 85 1.0
338 88 1.0
339 73 -1.0
339 86 1.0
339 88 1.0
340 72 1.0
340 73 -1.0
340 87 1.0
341 74 1.0
341 75 -1.0
341 78 1.0
342 74 1.0
342 76 -1.0
342 79 1.0
343 74 1.0
343 80 1.0
343 89 -1.0
344 74 1.0
344 77 -1.0
344 81 1.0
345 75 1.0
345 76 -1.0
345 82 1.0
346 75 1.0
346 83 1.0
346 89 -1.0
347 75 1.0
347 77 -1.0
347 84 1.0
348 76 1.0
348 85 1.0
348 89 -1.0
349 76 1.0
349 77 -1.0
349 86 1.0
350 77 -1.0
350 87 1.0
350 89 1.0
351 78 1.0
351 79 -1.0
351 82 1.0
352 78 1.0
352 80 -1.0
352 83 1.0
353 78 1.0
353 81 -1.0
353 84 1.0
354 79 1.0
354 80 -1.0
354 85 1.0
355 79 1.0
355 81 -1.0
355 86 1.0
356 80 1.0
356 81 -1.0
356 87 1.0
357 82 1.0
357 83 -1.0
357 85 1.0
358 82 1.0
358 84 -1.0
358 86 1.0
359 83 1.0
359 84 -1.0
359 87 1.0
360 85 1.0
360 86 -1.0
360 87 1.0
361 45 1.0
361 46 -1.0
361 47 -1.0
362 47 -1.0
362 48 1.0
362 49 -1.0
363 47 -1.0
363 50 1.0
363 51 -1.0
364 47 -1.0
364 52 1.0
364 53 -1.0
365 47 -1.0
365 54 1.0
365 55 -1.0
366 47 -1.0
366 56 1.0
366 57 -1.0
367 47 -1.0
367 58 1.0
367 59 -1.0
368 47 -1.0
368 60 1.0
368 61 -1.0
369 45 -1.0
369 48 1.0
369 62 -1.0
370 45 -1.0
370 50 1.0
370 63 -1.0
371 45 -1.0
371 52 1.0
371 64 -1.0
372 45 -1.0
372 54 1.0
372 65 -1.0
373 45 -1.0
373 56 1.0
373 66 -1.0
374 45 -1.0
374 58 1.0
374 67 -1.0
375 45 -1.0
375 60 1.0
375 68 -1.0
376 48 -1.0
376 50 1.0
376 69 -1.0
377 48 -1.0
377 52 1.0
377 70 -1.0
378 48 -1.0
378 54 1.0
378 71 -1.0
379 48 -1.0
379 56 1.0
379 88 -1.0
380 48 -1.0
380 58 1.0
380 72 -1.0
381 48 -1.0
381 60 1.0
381 73 -1.0
382 50 -1.0
382 52 1.0
382 74 -1.0
383 50 -1.0
383 54 1.0
383 75 -1.0
384 50 -1.0
384 56 1.0
384 76 -1.0
385 50 -1.0
385 58 1.0
385 89 -1.0
386 50 -1.0
386 60 1.0
386 77 -1.0
387 52 -1.0
387 54 1.0
387 78 -1.0
388 52 -1.0
388 56 1.0
388 79 -1.0
389 52 -1.0
389 58 1.0
389 80 -1.0
390 52 -1.0
390 60 1.0
390 81 -1.0
391 54 -1.0
391 56 1.0
391 82 -1.0
392 54 -1.0
392 58 1.0
392 83 -1.0
393 54 -1.0
393 60 1.0
393 84 -1.0
394 56 -1.0
394 58 1.0
394 85 -1.0
395 56 -1.0
395 60 1.0
395 86 -1.0
396 58 -1.0
396 60 1.0
396 87 -1.0
397 46 -1.0
397 49 1.0
397 62 -1.0
398 46 -1.0
398 51 1.0
398 63 -1.0
399 46 -1.0
399 53 1.0
399 64 -1.0
400 46 -1.0
400 55 1.0
400 65 -1.0
401 46 -1.0
401 57 1.0
401 66 -1.0
402 46 -1.0
402 59 1.0
402 67 -1.0
403 46 -1.0
403 61 1.0
403 68 -1.0
404 49 -1.0
404 51 1.0
404 69 -1.0
405 49 -1.0
405 53 1.0
405 70 -1.0
406 49 -1.0
406 55 1.0
406 71 -1.0
407 49 -1.0
407 57 1.0
407 88 -1.0
408 49 -1.0
408 59 1.0
408 72 -1.0
409 49 -1.0
409 61 1.0
409 73 -1.0
410 51 -1.0
410 53 1.0
410 74 -1.0
411 51 -1.0
411 55 1.0
411 75 -1.0
412 51 -1.0
412 57 1.0
412 76 -1.0
413 51 -1.0
413 59 1.0
413 89 -1.0
414 51 -1.0
414 61 1.0
414 77 -1.0
415 53 -1.0
415 55 1.0
415 78 -1.0
416 53 -1.0
416 57 1.0
416 79 -1.0
417 53 -1.0
417 59 1.0
417 80 -1.0
418 53 -1.0
418 61 1.0
418 81 -1.0
419 55 -1.0
419 57 1.0
419 82 -1.0
420 55 -1.0
420 59 1.0
420 83 -1.0
421 55 -1.0
421 61 1.0
421 84 -1.0
422 57 -1.0
422 59 1.0
422 85 -1.0
423 57 -1.0
423 61 1.0
423 86 -1.0
424 59 -1.0
424 61 1.0
424 87 -1.0
425 62 -1.0
425 63 1.0
425 69 -1.0
426 62 -1.0
426 64 1.0
426 70 -1.0
427 62 -1.0
427 65 1.0
427 71 -1.0
428 62 -1.0
428 66 1.0
428 88 -1.0
429 62 -1.0
429 67 1.0
429 72 -1.0
430 62 -1.0
430 68 1.0
430 73 -1.0
431 63 -1.0
431 64 1.0
431 74 -1.0
432 63 -1.0
432 65 1.0
432 75 -1.0
433 63 -1.0
433 66 1.0
433 76 -1.0
434 63 -1.0
434 67 1.0
434 89 -1.0
435 63 -1.0
435 68 1.0
435 77 -1.0
436 64 -1.0
436 65 1.0
436 78 -1.0
437 64 -1.0
437 66 1.0
437 79 -1.0
438 64 -1.0
438 67 1.0
438 80 -1.0
439 64 -1.0
439 68 1.0
439 81 -1.0
440 65 -1.0
440 66 1.0
440 82 -1.0
441 65 -1.0
441 67 1.0
441 83 -1.0
442 65 -1.0
442 68 1.0
442 84 -1.0
443 66 -1.0
443 67 1.0
443 85 -1.0
444 66 -1.0
444 68 1.0
444 86 -1.0
445 67 -1.0
445 68 1.0
445 87 -1.0
446 69 -1.0
446 70 1.0
446 74 -1.0
447 69 -1.0
447 71 1.0
447 75 -1.0
448 69 -1.0
448 76 -1.0
448 88 1.0
449 69 -1.0
449 72 1.0
449 89 -1.0
450 69 -1.0
450 73 1.0
450 77 -1.0
451 70 -1.0
451 71 1.0
451 78 -1.0
452 70 -1.0
452 79 -1.0
452 88 1.0
453 70 -1.0
453 72 1.0
453 80 -1.0
454 70 -1.0
454 73 1.0
454 81 -1.0
455 71 -1.0
455 82 -1.0
455 88 1.0
456 71 -1.0
456 72 1.0
456 83 -1.0
457 71 -1.0
457 73 1.0
457 84 -1.0
458 72 1.0
458 85 -1.0
458 88 -1.0
459 73 1.0
459 86 -1.0
459 88 -1.0
460 72 -1.0
460 73 1.0
460 87 -1.0
461 74 -1.0
461 75 1.0
461 78 -1.0
462 74 -1.0
462 76 1.0
462 79 -1.0
463 74 -1.0
463 80 -1.0
463 89 1.0
464 74 -1.0
464 77 1.0
464 81 -1.0
465 75 -1.0
465 76 1.0
465 82 -1.0
466 75 -1.0
466 83 -1.0
466 89 1.0
467 75 -1.0
467 77 1.0
467 84 -1.0
468 76 -1.0
468 85 -1.0
468 89 1.0
469 76 -1.0
469 77 1.0
469 86 -1.0
470 77 1.0
470 87 -1.0
470 89 -1.0
471 78 -1.0
471 79 1.0
471 82 -1.0
472 78 -1.0
472 80 1.0
472 83 -1.0
473 78 -1.0
473 81 1.0
473 84 -1.0
474 79 -1.0
474 80 1.0
474 85 -1.0
475 79 -1.0
475 81 1.0
475 86 -1.0
476 80 -1.0
476 81 1.0
476 87 -1.0
477 82 -1.0
477 83 1.0
477 85 -1.0
478 82 -1.0
478 84 1.0
478 86 -1.0
479 83 -1.0
479 84 1.0
479 87 -1.0
480 85 -1.0
480 86 1.0
480 87 -1.0
1.79769313486232E+308 # value for infinity
-1.79769313486232E+308 # default left-hand-side value
0 # number of non-default left-hand-sides
0.0 # default right-hand-side value
240 # number of non-default right-hand-sides
1 1.0
2 1.0
3 1.0
4 1.0
5 1.0
6 1.0
7 1.0
8 1.0
9 1.0
10 1.0
11 1.0
12 1.0
13 1.0
14 1.0
15 1.0
16 1.0
17 1.0
18 1.0
19 1.0
20 1.0
21 1.0
22 1.0
23 1.0
24 1.0
25 1.0
26 1.0
27 1.0
28 1.0
29 1.0
30 1.0
31 1.0
32 1.0
33 1.0
34 1.0
35 1.0
36 1.0
37 1.0
38 1.0
39 1.0
40 1.0
41 1.0
42 1.0
43 1.0
44 1.0
45 1.0
46 1.0
47 1.0
48 1.0
49 1.0
50 1.0
51 1.0
52 1.0
53 1.0
54 1.0
55 1.0
56 1.0
57 1.0
58 1.0
59 1.0
60 1.0
61 1.0
62 1.0
63 1.0
64 1.0
65 1.0
66 1.0
67 1.0
68 1.0
69 1.0
70 1.0
71 1.0
72 1.0
73 1.0
74 1.0
75 1.0
76 1.0
77 1.0
78 1.0
79 1.0
80 1.0
81 1.0
82 1.0
83 1.0
84 1.0
85 1.0
86 1.0
87 1.0
88 1.0
89 1.0
90 1.0
91 1.0
92 1.0
93 1.0
94 1.0
95 1.0
96 1.0
97 1.0
98 1.0
99 1.0
100 1.0
101 1.0
102 1.0
103 1.0
104 1.0
105 1.0
106 1.0
107 1.0
108 1.0
109 1.0
110 1.0
111 1.0
112 1.0
113 1.0
114 1.0
115 1.0
116 1.0
117 1.0
118 1.0
119 1.0
120 1.0
241 1.0
242 1.0
243 1.0
244 1.0
245 1.0
246 1.0
247 1.0
248 1.0
249 1.0
250 1.0
251 1.0
252 1.0
253 1.0
254 1.0
255 1.0
256 1.0
257 1.0
258 1.0
259 1.0
260 1.0
261 1.0
262 1.0
263 1.0
264 1.0
265 1.0
266 1.0
267 1.0
268 1.0
269 1.0
270 1.0
271 1.0
272 1.0
273 1.0
274 1.0
275 1.0
276 1.0
277 1.0
278 1.0
279 1.0
280 1.0
281 1.0
282 1.0
283 1.0
284 1.0
285 1.0
286 1.0
287 1.0
288 1.0
289 1.0
290 1.0
291 1.0
292 1.0
293 1.0
294 1.0
295 1.0
296 1.0
297 1.0
298 1.0
299 1.0
300 1.0
301 1.0
302 1.0
303 1.0
304 1.0
305 1.0
306 1.0
307 1.0
308 1.0
309 1.0
310 1.0
311 1.0
312 1.0
313 1.0
314 1.0
315 1.0
316 1.0
317 1.0
318 1.0
319 1.0
320 1.0
321 1.0
322 1.0
323 1.0
324 1.0
325 1.0
326 1.0
327 1.0
328 1.0
329 1.0
330 1.0
331 1.0
332 1.0
333 1.0
334 1.0
335 1.0
336 1.0
337 1.0
338 1.0
339 1.0
340 1.0
341 1.0
342 1.0
343 1.0
344 1.0
345 1.0
346 1.0
347 1.0
348 1.0
349 1.0
350 1.0
351 1.0
352 1.0
353 1.0
354 1.0
355 1.0
356 1.0
357 1.0
358 1.0
359 1.0
360 1.0
0.0 # default variable primal value in starting point
0 # number of non-default variable primal values in starting point
0.0 # default constraint dual value in starting point
0 # number of non-default constraint dual values in starting point
0.0 # default variable bound dual value in starting point
0 # number of non-default variable bound dual values in starting point
0 # number of non-default variable names
0 # number of non-default constraint names
